WARNING: for repeatability, setting FPU to use double precision
============================[ Problem Statistics ]=============================
|                                                                             |
|  Number of variables:        134781                                         |
|  Number of clauses:          648661                                         |
|  Parse time:                   0.14 s                                       |
|                                                                             |
c ============================[ Search Statistics ]==============================
c | Conflicts |          ORIGINAL         |          LEARNT          | Progress |
c |           |    Vars  Clauses Literals |    Limit  Clauses Lit/Cl |          |
c ===============================================================================
c Switched to VSIDS.
c Switched to LRB.
c Switched to VSIDS.
c Switched to LRB.
c Switched to VSIDS.
c Switched to LRB.
c Switched to VSIDS.
c Switched to LRB.
c Switched to VSIDS.
c Switched to LRB.
c Switched to VSIDS.
c Switched to LRB.
c Switched to VSIDS.
c Switched to LRB.
c Switched to VSIDS.
c Switched to LRB.
c Switched to VSIDS.
c Switched to LRB.
c Switched to VSIDS.
c Switched to LRB.
c Switched to VSIDS.
c Switched to LRB.
c Switched to VSIDS.
c Switched to LRB.
c Switched to VSIDS.
c Switched to LRB.
c Switched to VSIDS.
c Switched to LRB.
c Switched to VSIDS.
c Switched to LRB.
c Switched to VSIDS.
c ===============================================================================
restarts                  : 28301
conflicts                 : 3677457        (1028 /sec)
decisions                 : 36588512       (0.00 % random) (10233 /sec)
propagations              : 6259355656     (1750522 /sec)
conflict literals         : 327518298      (20.96 % deleted)

conflicts w/ DIP found    : 2934450        (79.80 % of conflicts)
conflicts w/ dangerous DIP: 0              (0.00 % of conflicts)
conflicts w/ DIP-learning : 4394           (0.12 % of conflicts)
decisions on ext vars     : 10815          (0.03 % of decisions)
total ext vars            : 906         
tried delete ext vars     : 5           
deleted ext vars          : 5           
max ext vars              : 901         

Memory used               : 406.00 MB
CPU time                  : 3575.71 s
DIP computation time      : 306.642 s (8.58 % of total time)
ER_sel time               : 5.21381 s
ER_add time               : 0.009275 s
ER_delC time              : 0 s
ER_delV time              : 0.001594 s
ER_sub time               : 6.55912 s
ER_stat time              : 0 s

INDETERMINATE
